1004          0             4    1  
1002          0             2    1  
1003          0             3    1  
0             0             0    0  
2004          0             4    2  
100           0             100  0  
1005          0             5    1  
2005          0             5    2  
5005          0             5    5  
2003          0             3    2  
3003          0             3    3  
3005          0             5    3  
5             0             5    0  
3004          0             4    3  
2             0             2    0  
100003        0             3    100
1             0             1    0  
4005          0             5    4  
3             0             3    0  
100002        0             2    100
100005        0             5    100
2002          0             2    2  
4             0             4    0  
1001          0             1    1  
100004        0             4    100
100001        0             1    100
4004          0             4    4  
100100        0             100  100
